============================[ Problem Statistics ]=============================|                                                                             ||  Number of variables:          4242                                         ||  Number of clauses:           10300                                         ||  Parse time:                   0.69 s                                       ||                                                                             |============================[ Search Statistics ]==============================| Conflicts |          ORIGINAL         |          LEARNT          | Progress ||           |    Vars  Clauses Literals |    Limit  Clauses Lit/Cl |          |===============================================================================|       100 |    1591     6505  1096856 |     2385      100     53 | 62.501 % ||       250 |    1591     6505  1096856 |     2623      250     75 | 62.495 % |===============================================================================restarts              : 3conflicts             : 374            (359 /sec)decisions             : 639            (0.00 % random) (614 /sec)propagations          : 12004          (11531 /sec)conflict literals     : 30714          (94.59 % deleted)CPU time              : 1.041 sSATISFIABLE